1 3 100 347149.46
1 3 200 321226.99
1 3 300 321991.76
2 3 100 438233.46
2 3 200 433172.95
2 3 300 438206.03
3 3 100 459954.40
3 3 200 472758.69
3 3 300 476573.84
4 3 100 431360.54
4 3 200 423146.19
4 3 300 478544.25
5 3 100 418020.17
5 3 200 432114.94
5 3 300 404925.17
